# ReaxFF potential for TATB system
# this run is equivalent to reax/in.reax.tatb,

variable        S index 1
variable        t index 10
variable        O index 1024
variable        F index 1024
units		real

atom_style	charge

variable xlo equal $S*0.0
variable xhi equal $S*13.624
variable ylo equal $S*0.0
variable yhi equal $S*17.1149153805
variable zlo equal $S*0.0
variable zhi equal $S*15.1826391451
variable xy  equal $S*-5.75315630927
variable xz  equal $S*-6.325466
variable yz  equal $S*7.4257288
lattice custom 1 &
a1 13.624 0.0 0.0 &
a2 -5.75315630927 17.1149153805 0.0 &
a3 -6.325466 7.4257288 15.1826391451 &
basis 0.265604184588 0.500366176645 0.361794148402 &
basis 0.262328821302 0.501675582029 0.279092452867 &
basis 0.265152800902 0.583753316279 0.199610223956 &
basis 0.265841247586 0.66451546918 0.200228693506 &
basis 0.263125030747 0.662784863939 0.281971398983 &
basis 0.265309172732 0.580715086415 0.362970491977 &
basis 0.260302282696 0.362327857447 0.346671612866 &
basis 0.266963971998 0.432999661336 0.211863034434 &
basis 0.268819383075 0.73737457601 0.0645777055379 &
basis 0.266125256737 0.806271076086 0.132351825055 &
basis 0.259639308647 0.64706163247 0.433901506651 &
basis 0.256524984205 0.508936260253 0.499973682273 &
basis 0.273338864341 0.420040541252 0.443523022292 &
basis 0.257872339282 0.426844667252 0.27698017188 &
basis 0.263229469587 0.584642118413 0.117098218762 &
basis 0.26762549124 0.739858674747 0.126900862333 &
basis 0.25738962383 0.741355499667 0.281970081689 &
basis 0.265622831511 0.57894928617 0.438388210139 &
basis 0.2765713269 0.419790810045 0.517203888267 &
basis 0.274550810091 0.34803619884 0.442809048924 &
basis 0.261300836695 0.512226442269 0.116294010753 &
basis 0.26360324065 0.658361458404 0.0460209844496 &
basis 0.255747403348 0.815618861837 0.209388497587 &
basis 0.255242041744 0.739660666484 0.355120736815 &
basis 0.513494460621 0.872995057206 0.325087750083 &
basis 0.51677022756 0.871685966197 0.407789445618 &
basis 0.513945513961 0.789608231947 0.487271674529 &
basis 0.513257397622 0.708845764671 0.486653204979 &
basis 0.51597434846 0.710576369912 0.404910499502 &
basis 0.513789225744 0.79264556315 0.323911406508 &
basis 0.518796032168 0.0110336907795 0.340210285619 &
basis 0.5121338494 0.940360718319 0.475018864051 &
basis 0.510278685056 0.63598638793 0.622304192947 &
basis 0.51297412247 0.567090157765 0.55453007343 &
basis 0.519459521689 0.726299315611 0.252981050481 &
basis 0.522574395003 0.864424973598 0.186908216212 &
basis 0.505760514867 0.953320692599 0.243358876193 &
basis 0.521226462847 0.946516296688 0.409901726605 &
basis 0.515869332543 0.788718845528 0.569783679723 &
basis 0.511472907236 0.633501974818 0.559981036152 &
basis 0.521708774646 0.632005149899 0.404911816796 &
basis 0.513476300964 0.794411363396 0.248493688347 &
basis 0.502528052308 0.953570423807 0.169678010218 &
basis 0.504549157897 0.0253250636154 0.244073508208 &
basis 0.517797231435 0.861134521672 0.570587887732 &
basis 0.515494642353 0.714999791307 0.640860255388 &
basis 0.523350810001 0.557742073499 0.477492742251 &
basis 0.523856541859 0.633699697311 0.331761820317 &
basis 0.765604184588 0.500366176645 0.361794148402 &
basis 0.762328821302 0.501675582029 0.279092452867 &
basis 0.765152800902 0.583753316279 0.199610223956 &
basis 0.765841247586 0.66451546918 0.200228693506 &
basis 0.763125030747 0.662784863939 0.281971398983 &
basis 0.765309172732 0.580715086415 0.362970491977 &
basis 0.760302282696 0.362327857447 0.346671612866 &
basis 0.766963971998 0.432999661336 0.211863034434 &
basis 0.768819383075 0.73737457601 0.0645777055379 &
basis 0.766125256737 0.806271076086 0.132351825055 &
basis 0.759639308647 0.64706163247 0.433901506651 &
basis 0.756524984205 0.508936260253 0.499973682273 &
basis 0.773338864341 0.420040541252 0.443523022292 &
basis 0.757872339282 0.426844667252 0.27698017188 &
basis 0.763229469587 0.584642118413 0.117098218762 &
basis 0.76762549124 0.739858674747 0.126900862333 &
basis 0.75738962383 0.741355499667 0.281970081689 &
basis 0.765622831511 0.57894928617 0.438388210139 &
basis 0.7765713269 0.419790810045 0.517203888267 &
basis 0.774550810091 0.34803619884 0.442809048924 &
basis 0.761300836695 0.512226442269 0.116294010753 &
basis 0.76360324065 0.658361458404 0.0460209844496 &
basis 0.755747403348 0.815618861837 0.209388497587 &
basis 0.755242041744 0.739660666484 0.355120736815 &
basis 0.0134944606205 0.872995057206 0.325087750083 &
basis 0.0167702275599 0.871685966197 0.407789445618 &
basis 0.013945513961 0.789608231947 0.487271674529 &
basis 0.0132573976221 0.708845764671 0.486653204979 &
basis 0.01597434846 0.710576369912 0.404910499502 &
basis 0.0137894724765 0.792646147436 0.323911406508 &
basis 0.0187960321678 0.0110336907795 0.340210285619 &
basis 0.0121338494002 0.940360718319 0.475018864051 &
basis 0.0102786850561 0.63598638793 0.622304192947 &
basis 0.0129741224701 0.567090157765 0.55453007343 &
basis 0.0194595216885 0.726299315611 0.252981050481 &
basis 0.0225743950025 0.864424973598 0.186908216212 &
basis 0.0057605148667 0.953320692599 0.243358876193 &
basis 0.0212264628471 0.946516296688 0.409901726605 &
basis 0.0158693325426 0.788718845528 0.569783679723 &
basis 0.0114729072362 0.633501974818 0.559981036152 &
basis 0.0217087746457 0.632005149899 0.404911816796 &
basis 0.0134765476963 0.794411947682 0.248493688347 &
basis 0.00252805230756 0.953570423807 0.169678010218 &
basis 0.00454915789722 0.0253250636154 0.244073508208 &
basis 0.0177972314354 0.861134521672 0.570587887732 &
basis 0.0154946423534 0.714999791307 0.640860255388 &
basis 0.0233508100007 0.557742073499 0.477492742251 &
basis 0.0238563567319 0.633699983081 0.33176116167 &
basis 0.265604263048 0.000366041689294 0.361794148402 &
basis 0.262328714636 0.00167573284352 0.27909179422 &
basis 0.265153126096 0.0837537656089 0.199610223956 &
basis 0.265841326047 0.164515334224 0.200228693506 &
basis 0.263124375209 0.162784728984 0.281971398983 &
basis 0.265309497925 0.0807155357457 0.362970491977 &
basis 0.260302753107 0.862328278172 0.346670954219 &
basis 0.266963893537 0.932999796291 0.211863034434 &
basis 0.268819708268 0.237375025341 0.0645777055379 &
basis 0.266124601199 0.306270941131 0.132351825055 &
basis 0.259638467982 0.147061783285 0.433900848004 &
basis 0.256525062665 0.00893612529785 0.499973682273 &
basis 0.273338942801 0.920040406296 0.443523022292 &
basis 0.257872994821 0.926844802208 0.27698017188 &
basis 0.263229391126 0.0846422533681 0.117098218762 &
basis 0.267625816433 0.239859124078 0.126900862333 &
basis 0.257389949023 0.241355948997 0.281970081689 &
basis 0.265623156704 0.0789497354999 0.438388210139 &
basis 0.27657140536 0.919790675089 0.517203888267 &
basis 0.274550703424 0.848036349655 0.442808390277 &
basis 0.261301004967 0.0122271615098 0.116294010753 &
basis 0.263603347317 0.158361307589 0.0460216430966 &
basis 0.255747913668 0.315619025397 0.209389156234 &
basis 0.255241447811 0.239661401585 0.355120078168 &
basis 0.513494051815 0.372995506537 0.325087750083 &
basis 0.516769353495 0.371685231097 0.407790104265 &
basis 0.513945188768 0.289607782617 0.487271674529 &
basis 0.513257722815 0.208846214002 0.486653204979 &
basis 0.515974673653 0.210576819242 0.404910499502 &
basis 0.513788816938 0.29264601248 0.323911406508 &
basis 0.518795706975 0.511033241449 0.340210285619 &
basis 0.512134504939 0.440360853274 0.475018864051 &
basis 0.510279340594 0.135986522885 0.622304192947 &
basis 0.512974200931 0.0670900228096 0.55453007343 &
basis 0.519459112883 0.226299764941 0.252981050481 &
basis 0.522574720196 0.364425422928 0.186908216212 &
basis 0.505760106061 0.45332114193 0.243358876193 &
basis 0.521225650388 0.446516431643 0.409901726605 &
basis 0.515869254082 0.288718980483 0.569783679723 &
basis 0.511473232429 0.133502424148 0.559981036152 &
basis 0.521709099839 0.132005599229 0.404911816796 &
basis 0.513475892158 0.294411812726 0.248493688347 &
basis 0.502528377501 0.453570873137 0.169678010218 &
basis 0.504548160311 0.525325484341 0.244072849561 &
basis 0.517797338102 0.361134370857 0.570588546379 &
basis 0.515494563893 0.214999926262 0.640860255388 &
basis 0.523351320321 0.0577422370588 0.477493400898 &
basis 0.523856681925 0.133700432412 0.33176116167 &
basis 0.765604263048 0.000366041689294 0.361794148402 &
basis 0.762328714636 0.00167573284352 0.27909179422 &
basis 0.765153126096 0.0837537656089 0.199610223956 &
basis 0.765841326047 0.164515334224 0.200228693506 &
basis 0.763124375209 0.162784728984 0.281971398983 &
basis 0.765309497925 0.0807155357457 0.362970491977 &
basis 0.760302753107 0.862328278172 0.346670954219 &
basis 0.766963893537 0.932999796291 0.211863034434 &
basis 0.768819708268 0.237375025341 0.0645777055379 &
basis 0.766124601199 0.306270941131 0.132351825055 &
basis 0.759638467982 0.147061783285 0.433900848004 &
basis 0.756525062665 0.00893612529785 0.499973682273 &
basis 0.773338942801 0.920040406296 0.443523022292 &
basis 0.757872994821 0.926844802208 0.27698017188 &
basis 0.763229391126 0.0846422533681 0.117098218762 &
basis 0.767625816433 0.239859124078 0.126900862333 &
basis 0.757389949023 0.241355948997 0.281970081689 &
basis 0.765623156704 0.0789497354999 0.438388210139 &
basis 0.77657140536 0.919790675089 0.517203888267 &
basis 0.774550703424 0.848036349655 0.442808390277 &
basis 0.761300758235 0.0122265772241 0.116294010753 &
basis 0.76360316219 0.158361593359 0.0460209844496 &
basis 0.755747913668 0.315619025397 0.209389156234 &
basis 0.755241447811 0.239661401585 0.355120078168 &
basis 0.0134940518149 0.372995506537 0.325087750083 &
basis 0.0167693534948 0.371685231097 0.407790104265 &
basis 0.0139451887678 0.289607782617 0.487271674529 &
basis 0.0132577228153 0.208846214002 0.486653204979 &
basis 0.0159746736533 0.210576819242 0.404910499502 &
basis 0.0137888169382 0.29264601248 0.323911406508 &
basis 0.0187957069746 0.511033241449 0.340210285619 &
basis 0.0121345049386 0.440360853274 0.475018864051 &
basis 0.0102793405944 0.135986522885 0.622304192947 &
basis 0.0129742009305 0.0670900228096 0.55453007343 &
basis 0.0194591128829 0.226299764941 0.252981050481 &
basis 0.0225747201957 0.364425422928 0.186908216212 &
basis 0.0057601060611 0.45332114193 0.243358876193 &
basis 0.0212256503878 0.446516431643 0.409901726605 &
basis 0.0158692540821 0.288718980483 0.569783679723 &
basis 0.0114732324294 0.133502424148 0.559981036152 &
basis 0.0217090998389 0.132005599229 0.404911816796 &
basis 0.0134758921579 0.294411812726 0.248493688347 &
basis 0.00252837750078 0.453570873137 0.169678010218 &
basis 0.00454816031106 0.525325484341 0.244072849561 &
basis 0.0177973381018 0.361134370857 0.570588546379 &
basis 0.0154945638929 0.214999926262 0.640860255388 &
basis 0.0233513203208 0.0577422370588 0.477493400898 &
basis 0.0238566819251 0.133700432412 0.33176116167 &
basis 0.265604629332 0.000366356674025 0.861794176556 &
basis 0.262329266046 0.00167576205798 0.779092481021 &
basis 0.265153245646 0.0837534963079 0.69961025211 &
basis 0.26584169233 0.164515649209 0.70022872166 &
basis 0.263125475491 0.162785043968 0.781971427137 &
basis 0.265309617476 0.0807152664447 0.86297052013 &
basis 0.260302727439 0.862328037476 0.84667164102 &
basis 0.266964416741 0.932999841365 0.711863062588 &
basis 0.268819827818 0.23737475604 0.564577733692 &
basis 0.266125701481 0.306271256115 0.632351853209 &
basis 0.25963975339 0.1470618125 0.933901534805 &
basis 0.256525428948 0.00893644028258 0.999973710427 &
basis 0.273339309084 0.920040721281 0.943523050446 &
basis 0.257872784026 0.926844847282 0.776980200034 &
basis 0.263229914331 0.084642298442 0.617098246916 &
basis 0.267625935983 0.239858854777 0.626900890487 &
basis 0.257390068574 0.241355679696 0.781970109843 &
basis 0.265623276255 0.078949466199 0.938388238292 &
basis 0.276571771643 0.919790990074 0.0172039164208 &
basis 0.274551254834 0.84803637887 0.942809077078 &
basis 0.261301281439 0.0122266222981 0.616294038907 &
basis 0.263603685394 0.158361638433 0.546021012603 &
basis 0.255747848092 0.315619041866 0.709388525741 &
basis 0.255242486488 0.239660846513 0.855120764969 &
basis 0.513494905364 0.372995237236 0.825087778237 &
basis 0.516770857431 0.371685860456 0.907790132419 &
basis 0.513945711972 0.289607827691 0.987271702683 &
basis 0.513257842366 0.208845944701 0.986653233133 &
basis 0.515974793204 0.210576549941 0.904910527656 &
basis 0.513789670487 0.292645743179 0.823911434662 &
basis 0.518796476911 0.511033870809 0.840210313773 &
basis 0.512134294144 0.440360898348 0.975018892205 &
basis 0.5102791298 0.135986567959 0.122304221101 &
basis 0.512974567214 0.0670903377943 0.0545301015843 &
basis 0.519460213165 0.226300079926 0.752981078635 &
basis 0.522574839746 0.364425153627 0.686908244366 &
basis 0.50576095961 0.453320872629 0.743358904347 &
basis 0.521226907591 0.446516476717 0.909901754759 &
basis 0.515869777286 0.288719025557 0.0697837078768 &
basis 0.51147335198 0.133502154847 0.0599810643062 &
basis 0.521709219389 0.132005329928 0.90491184495 &
basis 0.513476745707 0.294411543425 0.7484937165 &
basis 0.502528497051 0.453570603836 0.669678038372 &
basis 0.504549602641 0.525325243645 0.744073536362 &
basis 0.517797676179 0.361134701701 0.0705879158859 &
basis 0.515495087097 0.214999971336 0.140860283542 &
basis 0.523351254744 0.0577422535281 0.977492770405 &
basis 0.523856986602 0.133699877341 0.831761848471 &
basis 0.765604629332 0.000366356674025 0.861794176556 &
basis 0.762329266046 0.00167576205798 0.779092481021 &
basis 0.765153245646 0.0837534963079 0.69961025211 &
basis 0.76584169233 0.164515649209 0.70022872166 &
basis 0.763125475491 0.162785043968 0.781971427137 &
basis 0.765309617476 0.0807152664447 0.86297052013 &
basis 0.760302727439 0.862328037476 0.84667164102 &
basis 0.766964416741 0.932999841365 0.711863062588 &
basis 0.768819827818 0.23737475604 0.564577733692 &
basis 0.766125701481 0.306271256115 0.632351853209 &
basis 0.75963975339 0.1470618125 0.933901534805 &
basis 0.756525428948 0.00893644028258 0.999973710427 &
basis 0.773339309084 0.920040721281 0.943523050446 &
basis 0.757872784026 0.926844847282 0.776980200034 &
basis 0.763229914331 0.084642298442 0.617098246916 &
basis 0.767625935983 0.239858854777 0.626900890487 &
basis 0.757390068574 0.241355679696 0.781970109843 &
basis 0.765623276255 0.078949466199 0.938388238292 &
basis 0.776571771643 0.919790990074 0.0172039164208 &
basis 0.774551254834 0.84803637887 0.942809077078 &
basis 0.761301281439 0.0122266222981 0.616294038907 &
basis 0.763603685394 0.158361638433 0.546021012603 &
basis 0.755747848092 0.315619041866 0.709388525741 &
basis 0.755242486488 0.239660846513 0.855120764969 &
basis 0.0134949053642 0.372995237236 0.825087778237 &
basis 0.0167708574305 0.371685860456 0.907790132419 &
basis 0.013945711972 0.289607827691 0.987271702683 &
basis 0.0132578423658 0.208845944701 0.986653233133 &
basis 0.0159747932038 0.210576549941 0.904910527656 &
basis 0.0137896704875 0.292645743179 0.823911434662 &
basis 0.0187964769115 0.511033870809 0.840210313773 &
basis 0.0121342941439 0.440360898348 0.975018892205 &
basis 0.0102788830671 0.135985983674 0.122304221101 &
basis 0.0129745672138 0.0670903377943 0.0545301015843 &
basis 0.019460213165 0.226300079926 0.752981078635 &
basis 0.0225748397462 0.364425153627 0.686908244366 &
basis 0.00576095961041 0.453320872629 0.743358904347 &
basis 0.0212269075908 0.446516476717 0.909901754759 &
basis 0.0158697772863 0.288719025557 0.0697837078768 &
basis 0.0114733519799 0.133502154847 0.0599810643062 &
basis 0.0217092193894 0.132005329928 0.90491184495 &
basis 0.0134767457072 0.294411543425 0.7484937165 &
basis 0.00252849705127 0.453570603836 0.669678038372 &
basis 0.00454960264093 0.525325243645 0.744073536362 &
basis 0.0177976761791 0.361134701701 0.0705879158859 &
basis 0.0154948403644 0.21499938705 0.140860283542 &
basis 0.0233512547444 0.0577422535281 0.977492770405 &
basis 0.0238569866025 0.133699877341 0.831761848471 &
basis 0.265604707792 0.500366221719 0.861794176556 &
basis 0.26232915938 0.501675912873 0.779091822374 &
basis 0.265153570839 0.583753945638 0.69961025211 &
basis 0.265841770791 0.664515514254 0.70022872166 &
basis 0.263124819953 0.662784909013 0.781971427137 &
basis 0.265309942669 0.580715715775 0.86297052013 &
basis 0.260303197851 0.362328458202 0.846670982373 &
basis 0.266964338281 0.43299997632 0.711863062588 &
basis 0.268820153011 0.73737520537 0.564577733692 &
basis 0.266125045943 0.80627112116 0.632351853209 &
basis 0.259639646724 0.647061963315 0.933900876158 &
basis 0.256525507409 0.508936305327 0.999973710427 &
basis 0.273339387545 0.420040586326 0.943523050446 &
basis 0.257873439564 0.426844982237 0.776980200034 &
basis 0.26322983587 0.584642433397 0.617098246916 &
basis 0.267626261176 0.739859304107 0.626900890487 &
basis 0.257390393767 0.741356129026 0.781970109843 &
basis 0.265623601448 0.578949915529 0.938388238292 &
basis 0.276571850104 0.419790855119 0.0172039164208 &
basis 0.274551148168 0.348036529685 0.942808418431 &
basis 0.261301202978 0.512226757253 0.616294038907 &
basis 0.263603606934 0.658361773389 0.546021012603 &
basis 0.255748358412 0.815619205426 0.709389184388 &
basis 0.255242077682 0.739661295844 0.855120764969 &
basis 0.513494496559 0.872995686566 0.825087778237 &
basis 0.516769798238 0.871685411126 0.907790132419 &
basis 0.513945633512 0.789607962647 0.987271702683 &
basis 0.513258167559 0.708846394031 0.986653233133 &
basis 0.515975118397 0.710576999272 0.904910527656 &
basis 0.513789261682 0.79264619251 0.823911434662 &
basis 0.518796151718 0.0110334214785 0.840210313773 &
basis 0.512134949682 0.940361033304 0.975018892205 &
basis 0.510279785338 0.635986702915 0.122304221101 &
basis 0.512974645674 0.567090202839 0.0545301015843 &
basis 0.519459557627 0.72629994497 0.752981078635 &
basis 0.522575164939 0.864425602958 0.686908244366 &
basis 0.505760550805 0.953321321959 0.743358904347 &
basis 0.521226095132 0.946516611673 0.909901754759 &
basis 0.515869698826 0.788719160512 0.0697837078768 &
basis 0.511473677173 0.633502604178 0.0599810643062 &
basis 0.521709544583 0.632005779258 0.90491184495 &
basis 0.513476336902 0.794411992755 0.7484937165 &
basis 0.502528822244 0.953571053166 0.669678038372 &
basis 0.504548605055 0.0253256643704 0.744072877715 &
basis 0.517797782845 0.861134550886 0.0705885745329 &
basis 0.515495008637 0.715000106291 0.140860283542 &
basis 0.523351765065 0.557742417088 0.977493429052 &
basis 0.523857126669 0.633700612441 0.831761189824 &
basis 0.765604707792 0.500366221719 0.861794176556 &
basis 0.76232915938 0.501675912873 0.779091822374 &
basis 0.765153570839 0.583753945638 0.69961025211 &
basis 0.765841770791 0.664515514254 0.70022872166 &
basis 0.763124819953 0.662784909013 0.781971427137 &
basis 0.765309942669 0.580715715775 0.86297052013 &
basis 0.760303197851 0.362328458202 0.846670982373 &
basis 0.766964338281 0.43299997632 0.711863062588 &
basis 0.768820153011 0.73737520537 0.564577733692 &
basis 0.766125045943 0.80627112116 0.632351853209 &
basis 0.759638912725 0.647061963315 0.933900876158 &
basis 0.756525507409 0.508936305327 0.999973710427 &
basis 0.773339387545 0.420040586326 0.943523050446 &
basis 0.757872705566 0.426844982237 0.776980200034 &
basis 0.76322983587 0.584642433397 0.617098246916 &
basis 0.767626261176 0.739859304107 0.626900890487 &
basis 0.757390393767 0.741356129026 0.781970109843 &
basis 0.765623601448 0.578949915529 0.938388238292 &
basis 0.776571850104 0.419790855119 0.0172039164208 &
basis 0.774551148168 0.348036529685 0.942808418431 &
basis 0.761301202978 0.512226757253 0.616294038907 &
basis 0.763603606934 0.658361773389 0.546021012603 &
basis 0.755748358412 0.815619205426 0.709389184388 &
basis 0.755241892555 0.739661581614 0.855120106322 &
basis 0.0134944965586 0.872995686566 0.825087778237 &
basis 0.0167697982385 0.871685411126 0.907790132419 &
basis 0.0139456335115 0.789607962647 0.987271702683 &
basis 0.013258167559 0.708846394031 0.986653233133 &
basis 0.015975118397 0.710576999272 0.904910527656 &
basis 0.0137892616819 0.79264619251 0.823911434662 &
basis 0.0187961517183 0.0110334214785 0.840210313773 &
basis 0.0121349496823 0.940361033304 0.975018892205 &
basis 0.0102797853381 0.635986702915 0.122304221101 &
basis 0.0129746456742 0.567090202839 0.0545301015843 &
basis 0.0194595576266 0.72629994497 0.752981078635 &
basis 0.0225751649394 0.864425602958 0.686908244366 &
basis 0.00576055080481 0.953321321959 0.743358904347 &
basis 0.0212260951315 0.946516611673 0.909901754759 &
basis 0.0158696988258 0.788719160512 0.0697837078768 &
basis 0.0114736771731 0.633502604178 0.0599810643062 &
basis 0.0217095445826 0.632005779258 0.90491184495 &
basis 0.0134763369016 0.794411992755 0.7484937165 &
basis 0.00252882224449 0.953571053166 0.669678038372 &
basis 0.00454860505477 0.0253256643704 0.744072877715 &
basis 0.0177977828455 0.861134550886 0.0705885745329 &
basis 0.0154950086367 0.715000106291 0.140860283542 &
basis 0.0233517650645 0.557742417088 0.977493429052 &
basis 0.0238571266688 0.633700612441 0.831761189824 &

region 1 prism ${xlo} ${xhi} ${ylo} ${yhi} ${zlo} ${zhi} ${xy} ${xz} ${yz} units box
create_box 4 1
create_atoms 4 box &
basis 1 1 &
basis 2 1 &
basis 3 1 &
basis 4 1 &
basis 5 1 &
basis 6 1 &
basis 7 2 &
basis 8 2 &
basis 9 2 &
basis 10 2 &
basis 11 2 &
basis 12 2 &
basis 13 4 &
basis 14 4 &
basis 15 4 &
basis 16 4 &
basis 17 4 &
basis 18 4 &
basis 19 3 &
basis 20 3 &
basis 21 3 &
basis 22 3 &
basis 23 3 &
basis 24 3 &
basis 25 1 &
basis 26 1 &
basis 27 1 &
basis 28 1 &
basis 29 1 &
basis 30 1 &
basis 31 2 &
basis 32 2 &
basis 33 2 &
basis 34 2 &
basis 35 2 &
basis 36 2 &
basis 37 4 &
basis 38 4 &
basis 39 4 &
basis 40 4 &
basis 41 4 &
basis 42 4 &
basis 43 3 &
basis 44 3 &
basis 45 3 &
basis 46 3 &
basis 47 3 &
basis 48 3 &
basis 49 1 &
basis 50 1 &
basis 51 1 &
basis 52 1 &
basis 53 1 &
basis 54 1 &
basis 55 2 &
basis 56 2 &
basis 57 2 &
basis 58 2 &
basis 59 2 &
basis 60 2 &
basis 61 4 &
basis 62 4 &
basis 63 4 &
basis 64 4 &
basis 65 4 &
basis 66 4 &
basis 67 3 &
basis 68 3 &
basis 69 3 &
basis 70 3 &
basis 71 3 &
basis 72 3 &
basis 73 1 &
basis 74 1 &
basis 75 1 &
basis 76 1 &
basis 77 1 &
basis 78 1 &
basis 79 2 &
basis 80 2 &
basis 81 2 &
basis 82 2 &
basis 83 2 &
basis 84 2 &
basis 85 4 &
basis 86 4 &
basis 87 4 &
basis 88 4 &
basis 89 4 &
basis 90 4 &
basis 91 3 &
basis 92 3 &
basis 93 3 &
basis 94 3 &
basis 95 3 &
basis 96 3 &
basis 97 1 &
basis 98 1 &
basis 99 1 &
basis 100 1 &
basis 101 1 &
basis 102 1 &
basis 103 2 &
basis 104 2 &
basis 105 2 &
basis 106 2 &
basis 107 2 &
basis 108 2 &
basis 109 4 &
basis 110 4 &
basis 111 4 &
basis 112 4 &
basis 113 4 &
basis 114 4 &
basis 115 3 &
basis 116 3 &
basis 117 3 &
basis 118 3 &
basis 119 3 &
basis 120 3 &
basis 121 1 &
basis 122 1 &
basis 123 1 &
basis 124 1 &
basis 125 1 &
basis 126 1 &
basis 127 2 &
basis 128 2 &
basis 129 2 &
basis 130 2 &
basis 131 2 &
basis 132 2 &
basis 133 4 &
basis 134 4 &
basis 135 4 &
basis 136 4 &
basis 137 4 &
basis 138 4 &
basis 139 3 &
basis 140 3 &
basis 141 3 &
basis 142 3 &
basis 143 3 &
basis 144 3 &
basis 145 1 &
basis 146 1 &
basis 147 1 &
basis 148 1 &
basis 149 1 &
basis 150 1 &
basis 151 2 &
basis 152 2 &
basis 153 2 &
basis 154 2 &
basis 155 2 &
basis 156 2 &
basis 157 4 &
basis 158 4 &
basis 159 4 &
basis 160 4 &
basis 161 4 &
basis 162 4 &
basis 163 3 &
basis 164 3 &
basis 165 3 &
basis 166 3 &
basis 167 3 &
basis 168 3 &
basis 169 1 &
basis 170 1 &
basis 171 1 &
basis 172 1 &
basis 173 1 &
basis 174 1 &
basis 175 2 &
basis 176 2 &
basis 177 2 &
basis 178 2 &
basis 179 2 &
basis 180 2 &
basis 181 4 &
basis 182 4 &
basis 183 4 &
basis 184 4 &
basis 185 4 &
basis 186 4 &
basis 187 3 &
basis 188 3 &
basis 189 3 &
basis 190 3 &
basis 191 3 &
basis 192 3 &
basis 193 1 &
basis 194 1 &
basis 195 1 &
basis 196 1 &
basis 197 1 &
basis 198 1 &
basis 199 2 &
basis 200 2 &
basis 201 2 &
basis 202 2 &
basis 203 2 &
basis 204 2 &
basis 205 4 &
basis 206 4 &
basis 207 4 &
basis 208 4 &
basis 209 4 &
basis 210 4 &
basis 211 3 &
basis 212 3 &
basis 213 3 &
basis 214 3 &
basis 215 3 &
basis 216 3 &
basis 217 1 &
basis 218 1 &
basis 219 1 &
basis 220 1 &
basis 221 1 &
basis 222 1 &
basis 223 2 &
basis 224 2 &
basis 225 2 &
basis 226 2 &
basis 227 2 &
basis 228 2 &
basis 229 4 &
basis 230 4 &
basis 231 4 &
basis 232 4 &
basis 233 4 &
basis 234 4 &
basis 235 3 &
basis 236 3 &
basis 237 3 &
basis 238 3 &
basis 239 3 &
basis 240 3 &
basis 241 1 &
basis 242 1 &
basis 243 1 &
basis 244 1 &
basis 245 1 &
basis 246 1 &
basis 247 2 &
basis 248 2 &
basis 249 2 &
basis 250 2 &
basis 251 2 &
basis 252 2 &
basis 253 4 &
basis 254 4 &
basis 255 4 &
basis 256 4 &
basis 257 4 &
basis 258 4 &
basis 259 3 &
basis 260 3 &
basis 261 3 &
basis 262 3 &
basis 263 3 &
basis 264 3 &
basis 265 1 &
basis 266 1 &
basis 267 1 &
basis 268 1 &
basis 269 1 &
basis 270 1 &
basis 271 2 &
basis 272 2 &
basis 273 2 &
basis 274 2 &
basis 275 2 &
basis 276 2 &
basis 277 4 &
basis 278 4 &
basis 279 4 &
basis 280 4 &
basis 281 4 &
basis 282 4 &
basis 283 3 &
basis 284 3 &
basis 285 3 &
basis 286 3 &
basis 287 3 &
basis 288 3 &
basis 289 1 &
basis 290 1 &
basis 291 1 &
basis 292 1 &
basis 293 1 &
basis 294 1 &
basis 295 2 &
basis 296 2 &
basis 297 2 &
basis 298 2 &
basis 299 2 &
basis 300 2 &
basis 301 4 &
basis 302 4 &
basis 303 4 &
basis 304 4 &
basis 305 4 &
basis 306 4 &
basis 307 3 &
basis 308 3 &
basis 309 3 &
basis 310 3 &
basis 311 3 &
basis 312 3 &
basis 313 1 &
basis 314 1 &
basis 315 1 &
basis 316 1 &
basis 317 1 &
basis 318 1 &
basis 319 2 &
basis 320 2 &
basis 321 2 &
basis 322 2 &
basis 323 2 &
basis 324 2 &
basis 325 4 &
basis 326 4 &
basis 327 4 &
basis 328 4 &
basis 329 4 &
basis 330 4 &
basis 331 3 &
basis 332 3 &
basis 333 3 &
basis 334 3 &
basis 335 3 &
basis 336 3 &
basis 337 1 &
basis 338 1 &
basis 339 1 &
basis 340 1 &
basis 341 1 &
basis 342 1 &
basis 343 2 &
basis 344 2 &
basis 345 2 &
basis 346 2 &
basis 347 2 &
basis 348 2 &
basis 349 4 &
basis 350 4 &
basis 351 4 &
basis 352 4 &
basis 353 4 &
basis 354 4 &
basis 355 3 &
basis 356 3 &
basis 357 3 &
basis 358 3 &
basis 359 3 &
basis 360 3 &
basis 361 1 &
basis 362 1 &
basis 363 1 &
basis 364 1 &
basis 365 1 &
basis 366 1 &
basis 367 2 &
basis 368 2 &
basis 369 2 &
basis 370 2 &
basis 371 2 &
basis 372 2 &
basis 373 4 &
basis 374 4 &
basis 375 4 &
basis 376 4 &
basis 377 4 &
basis 378 4 &
basis 379 3 &
basis 380 3 &
basis 381 3 &
basis 382 3 &
basis 383 3 &
basis 384 3 &

mass 1 12.0000
mass 2 1.0080
mass 3 15.9990
mass 4 14.0000


pair_style      reax/c control.reax_c.tatb
# maxfar $F
pair_coeff      * * ffield.reax C H O N

compute reax all pair reax/c

variable eb  	 equal c_reax[1]
variable ea  	 equal c_reax[2]
variable elp 	 equal c_reax[3]
variable emol  equal c_reax[4]
variable ev 	 equal c_reax[5]
variable epen  equal c_reax[6]
variable ecoa  equal c_reax[7]
variable ehb 	 equal c_reax[8]
variable et 	 equal c_reax[9]
variable eco 	 equal c_reax[10]
variable ew 	 equal c_reax[11]
variable ep 	 equal c_reax[12]
variable efi 	 equal c_reax[13]
variable eqeq	 equal c_reax[14]

neighbor	2.5 bin
neigh_modify	delay 0 every 5 check no one $O

fix		1 all nve
fix             2 all qeq/reax 1 0.0 10.0 1.0e-6 reax/c
#fix   		4 all reax/c/bonds 5 bonds.reaxc

thermo		5
thermo_style 	custom step temp epair etotal press &
		v_eb v_ea v_elp v_emol v_ev v_epen v_ecoa &
		v_ehb v_et v_eco v_ew v_ep v_efi v_eqeq

timestep	0.0625

#dump		1 all custom 100 dump.reaxc.tatb id type q x y z

#dump		2 all image 5 image.*.jpg type type &
#		axes yes 0.8 0.02 view 60 -30
#dump_modify	2 pad 3

#dump		3 all movie 5 movie.mpg type type &
#		axes yes 0.8 0.02 view 60 -30
#dump_modify	3 pad 3

#fix 		3 all reax/c/species 1 5 5 species.tatb

run		$t
